228,169,236,169
228,169,228,161
228,169,220,169
220,169,212,169
204,169,212,169
196,169,204,169
188,169,196,169
196,169,196,161
172,145,164,145
164,145,156,145
156,145,148,145
148,145,140,145
164,169,172,169
164,169,156,169
148,169,156,169
148,169,140,169
140,169,132,169
124,169,132,169
256,157,246,157
124,169,116,161
236,169,246,157
256,157,256,141
188,145,172,145
188,169,172,169
256,141,270,133
196,161,188,145
270,133,288,129
288,149,288,129
